NAME          ClpDefau
ROWS
 N  OBJROW
 L  R0000000
 E  R0000001
 L  R0000002
 L  R0000003
COLUMNS
    X1  OBJROW     2.          R0000000  -1.        
    X1  R0000001  -1.         
    X2  OBJROW     5.           R0000000  -10.         
    X2  R0000001  4.  
    X2  R0000002  5.
    X2  R0000003  5.       
    X3  OBJROW     0.           R0000000  10.         
    X3  R0000001  9.        
    X4  OBJROW     7.           R0000000  -8.         
    X4  R0000001  3. 
    X4  R0000002  1.         
    X5  OBJROW     10.          R0000000  1.         
    X5  R0000001  2.        
    X6  OBJROW     2.          R0000000  -7.        
    X6  R0000001  6.         
    X7  OBJROW     10.         R0000000  6.        
    X7  R0000001  -10.
    X7  R0000003  1.        
       
RHS
    RHS       R0000000  4.4444444444          R0000001  4.
    RHS       R0000002  5         R0000003  5.
BOUNDS
 BV BOUND     X1            
 BV BOUND     X2            
 LO BOUND     X3    0.          
 LO BOUND     X4    0.          
 LO BOUND     X5    0.          
 LO BOUND     X6    0.          
 LO BOUND     X7    0. 
 UP BOUND     X3    1e30
 UP BOUND     X4    1e30
 UP BOUND     X5    1e30
 UP BOUND     X6    1e30
 UP BOUND     X7    1e30         
       
ENDATA
